p wcnf 21 48
w -2 0.367879 0
w 2 2.718282 0
w -3 0.367879 0
w 3 2.718282 0
w -5 0.367879 0
w 5 2.718282 0
w -6 0.367879 0
w 6 2.718282 0
w -8 0.367879 0
w 8 2.718282 0
w -10 0.367879 0
w 10 2.718282 0
w -11 0.367879 0
w 11 2.718282 0
w -13 0.367879 0
w 13 2.718282 0
w -14 0.367879 0
w 14 2.718282 0
w -16 0.367879 0
w 16 2.718282 0
w -18 0.367879 0
w 18 2.718282 0
w -20 0.367879 0
w 20 2.718282 0
2 1 4 0
2 -1 -4 0
-2 1 -4 0
-2 -1 4 0
3 1 9 0
3 -1 -9 0
-3 1 -9 0
-3 -1 9 0
5 4 7 0
5 -4 -7 0
-5 4 -7 0
-5 -4 7 0
6 4 12 0
6 -4 -12 0
-6 4 -12 0
-6 -4 12 0
8 7 15 0
8 -7 -15 0
-8 7 -15 0
-8 -7 15 0
10 9 12 0
10 -9 -12 0
-10 9 -12 0
-10 -9 12 0
11 9 17 0
11 -9 -17 0
-11 9 -17 0
-11 -9 17 0
13 12 15 0
13 -12 -15 0
-13 12 -15 0
-13 -12 15 0
14 12 19 0
14 -12 -19 0
-14 12 -19 0
-14 -12 19 0
16 15 21 0
16 -15 -21 0
-16 15 -21 0
-16 -15 21 0
18 17 19 0
18 -17 -19 0
-18 17 -19 0
-18 -17 19 0
20 19 21 0
20 -19 -21 0
-20 19 -21 0
-20 -19 21 0
